WARNING: for repeatability, setting FPU to use double precision
============================[ Problem Statistics ]=============================
|                                                                             |
|  Number of variables:         27899                                         |
|  Number of clauses:          603183                                         |
|  Parse time:                   0.17 s                                       |
|  Eliminated clauses:           0.01 Mb                                      |
|  Simplification time:          0.18 s                                       |
|                                                                             |
============================[ Search Statistics ]==============================
| Conflicts |          ORIGINAL         |          LEARNT          | Progress |
|           |    Vars  Clauses Literals |    Limit  Clauses Lit/Cl |          |
===============================================================================
|       100 |    3631    42705    93597 |    15658      100    162 | 83.763 % |
|       250 |    3631    42705    93597 |    17224      250    196 | 83.763 % |
===============================================================================
restarts              : 3
conflicts             : 263            (728 /sec)
decisions             : 2180           (0.00 % random) (6032 /sec)
propagations          : 86974          (240654 /sec)
conflict literals     : 53432          (0.16 % deleted)
Memory used           : 60.00 MB
CPU time              : 0.361407 s

SATISFIABLE
